NAME: random-43-5626
TYPE: TSP
COMMENT: size=43 seed=5626
DIMENSION: 88
EDGE_WEIGHT_TYPE: EUC_2D
NODE_COORD_SECTION
+0 182 94
-0 182 94
+1 121 815
-1 736 735
+2 611 908
-2 861 756
+3 267 774
-3 762 818
+4 277 533
-4 261 840
+5 522 433
-5 323 884
+6 840 350
-6 475 362
+7 836 942
-7 435 740
+8 540 393
-8 833 896
+9 181 289
-9 429 361
+10 659 703
-10 963 350
+11 355 394
-11 937 847
+12 946 97
-12 762 289
+13 169 682
-13 581 148
+14 785 346
-14 375 298
+15 389 730
-15 786 306
+16 576 965
-16 43 438
+17 924 200
-17 596 939
+18 484 911
-18 430 600
+19 867 729
-19 302 343
+20 911 709
-20 171 795
+21 694 43
-21 503 497
+22 892 195
-22 471 217
+23 952 243
-23 477 243
+24 470 64
-24 983 105
+25 392 618
-25 341 387
+26 754 356
-26 244 827
+27 162 716
-27 256 383
+28 730 433
-28 305 709
+29 886 962
-29 28 661
+30 143 714
-30 492 498
+31 573 497
-31 166 977
+32 757 670
-32 162 294
+33 617 401
-33 152 839
+34 353 702
-34 5 247
+35 947 581
-35 172 731
+36 412 87
-36 981 888
+37 264 800
-37 802 19
+38 747 113
-38 192 218
+39 250 799
-39 971 730
+40 80 796
-40 8 499
+41 115 260
-41 567 391
+42 606 8
-42 990 290
+43 92 924
-43 191 755
PRECEDENCE_SECTION
+0 -0
+1 -1
+2 -2
+3 -3
+4 -4
+5 -5
+6 -6
+7 -7
+8 -8
+9 -9
+10 -10
+11 -11
+12 -12
+13 -13
+14 -14
+15 -15
+16 -16
+17 -17
+18 -18
+19 -19
+20 -20
+21 -21
+22 -22
+23 -23
+24 -24
+25 -25
+26 -26
+27 -27
+28 -28
+29 -29
+30 -30
+31 -31
+32 -32
+33 -33
+34 -34
+35 -35
+36 -36
+37 -37
+38 -38
+39 -39
+40 -40
+41 -41
+42 -42
+43 -43
EOF
